computational_data/solutions/Reg3_n30_s4.sol
Optimal - objective value 13.00000000
      3 r_3                         1                       1
      6 r_6                         1                       1
     20 r_20                        1                       1
     22 r_22                        1                       1
     26 r_26                        1                       1
     27 r_27                        1                       1
     28 r_28                        1                       1
     32 b_2                         1                       1
     34 b_4                         1                       1
     42 b_12                        1                       1
     48 b_18                        1                       1
     49 b_19                        1                       1
     53 b_23                        1                       1
